(declare-const havoc Int)
(declare-const |i':26:32:34| Int)
(declare-const |K:30:31:33| Int)
(assert (and (< (+ havoc -10) 0) (< (+ (- havoc) -10) 0)
               (or (not (<= (- |K:30:31:33|) 0))
                     (= (+ |i':26:32:34| (- |K:30:31:33|) (- havoc)) 0))
               (or (and (= |K:30:31:33| 0) (= (+ (- |i':26:32:34|) havoc) 0))
                     (and (<= (+ (- |K:30:31:33|) 1) 0)
                            (<= (+ (* havoc havoc) -99) 0)
                            (<= (+ (* |i':26:32:34| |i':26:32:34|)
                                     (* -2 |i':26:32:34|) -98) 0)))
               (<= (- |K:30:31:33|) 0)
               (<= (+ (- (* |i':26:32:34| |i':26:32:34|)) 100) 0)
               (not (= (+ |i':26:32:34| -10) 0))))
(check-sat)
